! @method @functional DLPNO-CCSD(T) VeryTightSCF
! SlowConv
! @basis @basis/C UseSym
! PrintBasis
%MaxCore @maxMem
%pal nprocs @nprocs
     end
%basis 
newGTO Au "cc-pVTZ-PP" end
newECP Au "SK-MCDHF-RSC" end
newAuxCGTO Au "cc-pVTZ-PP/C" end
newGTO Ag "cc-pVTZ-PP" end
newECP Ag "SK-MCDHF-RSC" end
newAuxCGTO Ag "cc-pVTZ-PP/C" end
newGTO Pd "cc-pVTZ-PP" end
newECP Pd "SK-MCDHF-RSC" end
newAuxCGTO Pd "cc-pVTZ-PP/C" end
newGTO Pt "cc-pVTZ-PP" end
newECP Pt "SK-MCDHF-RSC" end
newAuxCGTO Pt "cc-pVTZ-PP/C" end
newGTO Ru "cc-pVTZ-PP" end
newECP Ru "SK-MCDHF-RSC" end
newAuxCGTO Ru "cc-pVTZ-PP/C" end
end
%scf
  DampFac  0.7
  DampErr  0.0001
  LShift   0.2
  ShiftErr 0.0001
  MaxIter  500
  SOSCFStart 0.00033        # Default value of orbital gradient is 0.0033
end
%mdci
maxiter 200
density none
end

* xyz @charge @multi
